(set-logic HORN)
(declare-datatypes ((Nat_0 0)) (((Z_0 ) (S_0 (unS_0 Nat_0)))))
(declare-fun diseqNat_0 (Nat_0 Nat_0) Bool)
(declare-fun unS_1 (Nat_0 Nat_0) Bool)
(declare-fun isZ_0 (Nat_0) Bool)
(declare-fun isS_0 (Nat_0) Bool)
(assert (forall ((x_89 Nat_0) (x_88 Nat_0))
	(=> (= x_89 (S_0 x_88))
	    (unS_1 x_88 x_89))))
(assert (isZ_0 Z_0))
(assert (forall ((x_90 Nat_0))
	(isS_0 (S_0 x_90))))
(assert (forall ((x_91 Nat_0))
	(diseqNat_0 Z_0 (S_0 x_91))))
(assert (forall ((x_92 Nat_0))
	(diseqNat_0 (S_0 x_92) Z_0)))
(assert (forall ((x_93 Nat_0) (x_94 Nat_0))
	(=> (diseqNat_0 x_93 x_94)
	    (diseqNat_0 (S_0 x_93) (S_0 x_94)))))
(declare-fun add_0 (Nat_0 Nat_0 Nat_0) Bool)
(declare-fun minus_0 (Nat_0 Nat_0 Nat_0) Bool)
(declare-fun le_0 (Nat_0 Nat_0) Bool)
(declare-fun ge_0 (Nat_0 Nat_0) Bool)
(declare-fun lt_0 (Nat_0 Nat_0) Bool)
(declare-fun gt_0 (Nat_0 Nat_0) Bool)
(declare-fun mult_0 (Nat_0 Nat_0 Nat_0) Bool)
(declare-fun div_0 (Nat_0 Nat_0 Nat_0) Bool)
(declare-fun mod_0 (Nat_0 Nat_0 Nat_0) Bool)
(assert (forall ((y_13 Nat_0))
	(add_0 y_13 Z_0 y_13)))
(assert (forall ((x_86 Nat_0) (y_13 Nat_0) (r_2 Nat_0))
	(=> (add_0 r_2 x_86 y_13)
	    (add_0 (S_0 r_2) (S_0 x_86) y_13))))
(assert (forall ((y_13 Nat_0))
	(minus_0 Z_0 Z_0 y_13)))
(assert (forall ((x_86 Nat_0) (y_13 Nat_0) (r_2 Nat_0))
	(=> (minus_0 r_2 x_86 y_13)
	    (minus_0 (S_0 r_2) (S_0 x_86) y_13))))
(assert (forall ((y_13 Nat_0))
	(le_0 Z_0 y_13)))
(assert (forall ((x_86 Nat_0) (y_13 Nat_0))
	(=> (le_0 x_86 y_13)
	    (le_0 (S_0 x_86) (S_0 y_13)))))
(assert (forall ((y_13 Nat_0))
	(ge_0 y_13 Z_0)))
(assert (forall ((x_86 Nat_0) (y_13 Nat_0))
	(=> (ge_0 x_86 y_13)
	    (ge_0 (S_0 x_86) (S_0 y_13)))))
(assert (forall ((y_13 Nat_0))
	(lt_0 Z_0 (S_0 y_13))))
(assert (forall ((x_86 Nat_0) (y_13 Nat_0))
	(=> (lt_0 x_86 y_13)
	    (lt_0 (S_0 x_86) (S_0 y_13)))))
(assert (forall ((y_13 Nat_0))
	(gt_0 (S_0 y_13) Z_0)))
(assert (forall ((x_86 Nat_0) (y_13 Nat_0))
	(=> (gt_0 x_86 y_13)
	    (gt_0 (S_0 x_86) (S_0 y_13)))))
(assert (forall ((y_13 Nat_0))
	(mult_0 Z_0 Z_0 y_13)))
(assert (forall ((x_86 Nat_0) (y_13 Nat_0) (r_2 Nat_0) (z_8 Nat_0))
	(=>	(and (mult_0 r_2 x_86 y_13)
			(add_0 z_8 r_2 y_13))
		(mult_0 z_8 (S_0 x_86) y_13))))
(assert (forall ((x_86 Nat_0) (y_13 Nat_0))
	(=> (lt_0 x_86 y_13)
	    (div_0 Z_0 x_86 y_13))))
(assert (forall ((x_86 Nat_0) (y_13 Nat_0) (r_2 Nat_0) (z_8 Nat_0))
	(=>	(and (ge_0 x_86 y_13)
			(minus_0 z_8 x_86 y_13)
			(div_0 r_2 z_8 y_13))
		(div_0 (S_0 r_2) x_86 y_13))))
(assert (forall ((x_86 Nat_0) (y_13 Nat_0))
	(=> (lt_0 x_86 y_13)
	    (mod_0 x_86 x_86 y_13))))
(assert (forall ((x_86 Nat_0) (y_13 Nat_0) (r_2 Nat_0) (z_8 Nat_0))
	(=>	(and (ge_0 x_86 y_13)
			(minus_0 z_8 x_86 y_13)
			(mod_0 r_2 z_8 y_13))
		(mod_0 r_2 x_86 y_13))))
(declare-datatypes ((pair_0 0)) (((pair_1 (projpair_0 Nat_0) (projpair_1 Bool)))))
(declare-fun diseqpair_0 (pair_0 pair_0) Bool)
(declare-fun projpair_2 (Nat_0 pair_0) Bool)
(declare-fun projpair_3 (Bool pair_0) Bool)
(declare-fun ispair_0 (pair_0) Bool)
(assert (forall ((x_97 pair_0) (x_95 Nat_0) (x_96 Bool))
	(=> (= x_97 (pair_1 x_95 x_96))
	    (projpair_2 x_95 x_97))))
(assert (forall ((x_97 pair_0) (x_95 Nat_0) (x_96 Bool))
	(=> (= x_97 (pair_1 x_95 x_96))
	    (projpair_3 x_96 x_97))))
(assert (forall ((x_98 Nat_0) (x_99 Bool))
	(ispair_0 (pair_1 x_98 x_99))))
(assert (forall ((x_100 Nat_0) (x_101 Bool) (x_102 Nat_0) (x_103 Bool))
	(=> (diseqNat_0 x_100 x_102)
	    (diseqpair_0 (pair_1 x_100 x_101) (pair_1 x_102 x_103)))))
(assert (forall ((x_100 Nat_0) (x_101 Bool) (x_102 Nat_0) (x_103 Bool))
	(=> (not (= x_101 x_103))
	    (diseqpair_0 (pair_1 x_100 x_101) (pair_1 x_102 x_103)))))
(declare-datatypes ((list_0 0)) (((nil_0 ) (cons_0 (head_0 Bool) (tail_0 list_0)))))
(declare-fun diseqlist_0 (list_0 list_0) Bool)
(declare-fun head_3 (Bool list_0) Bool)
(declare-fun tail_3 (list_0 list_0) Bool)
(declare-fun isnil_0 (list_0) Bool)
(declare-fun iscons_0 (list_0) Bool)
(assert (forall ((x_107 list_0) (x_105 Bool) (x_106 list_0))
	(=> (= x_107 (cons_0 x_105 x_106))
	    (head_3 x_105 x_107))))
(assert (forall ((x_107 list_0) (x_105 Bool) (x_106 list_0))
	(=> (= x_107 (cons_0 x_105 x_106))
	    (tail_3 x_106 x_107))))
(assert (isnil_0 nil_0))
(assert (forall ((x_108 Bool) (x_109 list_0))
	(iscons_0 (cons_0 x_108 x_109))))
(assert (forall ((x_110 Bool) (x_111 list_0))
	(diseqlist_0 nil_0 (cons_0 x_110 x_111))))
(assert (forall ((x_112 Bool) (x_113 list_0))
	(diseqlist_0 (cons_0 x_112 x_113) nil_0)))
(assert (forall ((x_114 Bool) (x_115 list_0) (x_116 Bool) (x_117 list_0))
	(=> (not (= x_114 x_116))
	    (diseqlist_0 (cons_0 x_114 x_115) (cons_0 x_116 x_117)))))
(assert (forall ((x_114 Bool) (x_115 list_0) (x_116 Bool) (x_117 list_0))
	(=> (diseqlist_0 x_115 x_117)
	    (diseqlist_0 (cons_0 x_114 x_115) (cons_0 x_116 x_117)))))
(declare-datatypes ((list_1 0)) (((nil_1 ) (cons_1 (head_1 pair_0) (tail_1 list_1)))))
(declare-fun diseqlist_1 (list_1 list_1) Bool)
(declare-fun head_4 (pair_0 list_1) Bool)
(declare-fun tail_4 (list_1 list_1) Bool)
(declare-fun isnil_1 (list_1) Bool)
(declare-fun iscons_1 (list_1) Bool)
(assert (forall ((x_121 list_1) (x_119 pair_0) (x_120 list_1))
	(=> (= x_121 (cons_1 x_119 x_120))
	    (head_4 x_119 x_121))))
(assert (forall ((x_121 list_1) (x_119 pair_0) (x_120 list_1))
	(=> (= x_121 (cons_1 x_119 x_120))
	    (tail_4 x_120 x_121))))
(assert (isnil_1 nil_1))
(assert (forall ((x_122 pair_0) (x_123 list_1))
	(iscons_1 (cons_1 x_122 x_123))))
(assert (forall ((x_124 pair_0) (x_125 list_1))
	(diseqlist_1 nil_1 (cons_1 x_124 x_125))))
(assert (forall ((x_126 pair_0) (x_127 list_1))
	(diseqlist_1 (cons_1 x_126 x_127) nil_1)))
(assert (forall ((x_128 pair_0) (x_129 list_1) (x_130 pair_0) (x_131 list_1))
	(=> (diseqpair_0 x_128 x_130)
	    (diseqlist_1 (cons_1 x_128 x_129) (cons_1 x_130 x_131)))))
(assert (forall ((x_128 pair_0) (x_129 list_1) (x_130 pair_0) (x_131 list_1))
	(=> (diseqlist_1 x_129 x_131)
	    (diseqlist_1 (cons_1 x_128 x_129) (cons_1 x_130 x_131)))))
(declare-datatypes ((list_2 0)) (((nil_2 ) (cons_2 (head_2 list_1) (tail_2 list_2)))))
(declare-fun diseqlist_2 (list_2 list_2) Bool)
(declare-fun head_5 (list_1 list_2) Bool)
(declare-fun tail_5 (list_2 list_2) Bool)
(declare-fun isnil_2 (list_2) Bool)
(declare-fun iscons_2 (list_2) Bool)
(assert (forall ((x_135 list_2) (x_133 list_1) (x_134 list_2))
	(=> (= x_135 (cons_2 x_133 x_134))
	    (head_5 x_133 x_135))))
(assert (forall ((x_135 list_2) (x_133 list_1) (x_134 list_2))
	(=> (= x_135 (cons_2 x_133 x_134))
	    (tail_5 x_134 x_135))))
(assert (isnil_2 nil_2))
(assert (forall ((x_136 list_1) (x_137 list_2))
	(iscons_2 (cons_2 x_136 x_137))))
(assert (forall ((x_138 list_1) (x_139 list_2))
	(diseqlist_2 nil_2 (cons_2 x_138 x_139))))
(assert (forall ((x_140 list_1) (x_141 list_2))
	(diseqlist_2 (cons_2 x_140 x_141) nil_2)))
(assert (forall ((x_142 list_1) (x_143 list_2) (x_144 list_1) (x_145 list_2))
	(=> (diseqlist_1 x_142 x_144)
	    (diseqlist_2 (cons_2 x_142 x_143) (cons_2 x_144 x_145)))))
(assert (forall ((x_142 list_1) (x_143 list_2) (x_144 list_1) (x_145 list_2))
	(=> (diseqlist_2 x_143 x_145)
	    (diseqlist_2 (cons_2 x_142 x_143) (cons_2 x_144 x_145)))))
(declare-datatypes ((Form_0 0)) (((x_0 (proj_0 Form_0) (proj_1 Form_0)) (Not_0 (projNot_0 Form_0)) (Var_0 (projVar_0 Nat_0)))))
(declare-fun diseqForm_0 (Form_0 Form_0) Bool)
(declare-fun proj_2 (Form_0 Form_0) Bool)
(declare-fun proj_3 (Form_0 Form_0) Bool)
(declare-fun projNot_1 (Form_0 Form_0) Bool)
(declare-fun projVar_1 (Nat_0 Form_0) Bool)
(declare-fun isx_0 (Form_0) Bool)
(declare-fun isNot_0 (Form_0) Bool)
(declare-fun isVar_0 (Form_0) Bool)
(assert (forall ((x_148 Form_0) (x_146 Form_0) (x_147 Form_0))
	(=> (= x_148 (x_0 x_146 x_147))
	    (proj_2 x_146 x_148))))
(assert (forall ((x_148 Form_0) (x_146 Form_0) (x_147 Form_0))
	(=> (= x_148 (x_0 x_146 x_147))
	    (proj_3 x_147 x_148))))
(assert (forall ((x_150 Form_0) (x_149 Form_0))
	(=> (= x_150 (Not_0 x_149))
	    (projNot_1 x_149 x_150))))
(assert (forall ((x_152 Form_0) (x_151 Nat_0))
	(=> (= x_152 (Var_0 x_151))
	    (projVar_1 x_151 x_152))))
(assert (forall ((x_153 Form_0) (x_154 Form_0))
	(isx_0 (x_0 x_153 x_154))))
(assert (forall ((x_155 Form_0))
	(isNot_0 (Not_0 x_155))))
(assert (forall ((x_156 Nat_0))
	(isVar_0 (Var_0 x_156))))
(assert (forall ((x_157 Form_0) (x_158 Form_0) (x_159 Form_0))
	(diseqForm_0 (x_0 x_157 x_158) (Not_0 x_159))))
(assert (forall ((x_160 Form_0) (x_161 Form_0) (x_162 Nat_0))
	(diseqForm_0 (x_0 x_160 x_161) (Var_0 x_162))))
(assert (forall ((x_163 Form_0) (x_164 Form_0) (x_165 Form_0))
	(diseqForm_0 (Not_0 x_163) (x_0 x_164 x_165))))
(assert (forall ((x_166 Nat_0) (x_167 Form_0) (x_168 Form_0))
	(diseqForm_0 (Var_0 x_166) (x_0 x_167 x_168))))
(assert (forall ((x_169 Form_0) (x_170 Nat_0))
	(diseqForm_0 (Not_0 x_169) (Var_0 x_170))))
(assert (forall ((x_171 Nat_0) (x_172 Form_0))
	(diseqForm_0 (Var_0 x_171) (Not_0 x_172))))
(assert (forall ((x_173 Form_0) (x_174 Form_0) (x_175 Form_0) (x_176 Form_0))
	(=> (diseqForm_0 x_173 x_175)
	    (diseqForm_0 (x_0 x_173 x_174) (x_0 x_175 x_176)))))
(assert (forall ((x_173 Form_0) (x_174 Form_0) (x_175 Form_0) (x_176 Form_0))
	(=> (diseqForm_0 x_174 x_176)
	    (diseqForm_0 (x_0 x_173 x_174) (x_0 x_175 x_176)))))
(assert (forall ((x_177 Form_0) (x_178 Form_0))
	(=> (diseqForm_0 x_177 x_178)
	    (diseqForm_0 (Not_0 x_177) (Not_0 x_178)))))
(assert (forall ((x_179 Nat_0) (x_180 Nat_0))
	(=> (diseqNat_0 x_179 x_180)
	    (diseqForm_0 (Var_0 x_179) (Var_0 x_180)))))
(declare-fun or_0 (Bool list_0) Bool)
(assert (forall ((x_1 list_0) (y_0 Bool) (xs_0 list_0) (x_20 Bool) (x_21 Bool))
	(=>	(and (= x_20 (or y_0 x_21))
			(or_0 x_21 xs_0)
			(= x_1 (cons_0 y_0 xs_0)))
		(or_0 x_20 x_1))))
(assert (forall ((x_1 list_0) (x_22 Bool))
	(=>	(and (= x_22 false)
			(= x_1 nil_0))
		(or_0 x_22 x_1))))
(declare-fun models_0 (list_1 Nat_0 list_1) Bool)
(assert (forall ((x_2 Nat_0) (y_1 list_1) (z_0 pair_0) (xs_1 list_1) (x_3 Nat_0) (y_2 Bool) (x_23 list_1) (x_24 list_1))
	(=>	(and (= x_23 (cons_1 z_0 x_24))
			(models_0 x_24 x_2 xs_1)
			(= y_1 (cons_1 z_0 xs_1))
			(diseqNat_0 x_2 x_3)
			(= z_0 (pair_1 x_3 y_2)))
		(models_0 x_23 x_2 y_1))))
(assert (forall ((x_2 Nat_0) (y_1 list_1) (z_0 pair_0) (xs_1 list_1) (x_3 Nat_0) (y_2 Bool) (x_25 list_1) (x_26 list_1))
	(=>	(and (= x_25 x_26)
			(models_0 x_26 x_2 xs_1)
			(= y_1 (cons_1 z_0 xs_1))
			(= x_2 x_3)
			(= z_0 (pair_1 x_3 y_2)))
		(models_0 x_25 x_2 y_1))))
(assert (forall ((x_2 Nat_0) (y_1 list_1) (x_27 list_1))
	(=>	(and (= x_27 nil_1)
			(= y_1 nil_1))
		(models_0 x_27 x_2 y_1))))
(declare-fun models_1 (list_0 Nat_0 list_1) Bool)
(assert (forall ((x_4 Nat_0) (y_3 list_1) (z_1 pair_0) (x_5 list_1) (y_4 Nat_0) (x_6 Bool) (x_28 list_0) (x_29 list_0))
	(=>	(and (= x_28 x_29)
			(models_1 x_29 x_4 x_5)
			(= y_3 (cons_1 z_1 x_5))
			(= z_1 (pair_1 y_4 x_6))
			x_6)
		(models_1 x_28 x_4 y_3))))
(assert (forall ((x_4 Nat_0) (y_3 list_1) (z_1 pair_0) (x_5 list_1) (y_4 Nat_0) (x_6 Bool) (x_30 list_0) (x_31 list_0))
	(=>	(and (= x_30 (cons_0 (= x_4 y_4) x_31))
			(models_1 x_31 x_4 x_5)
			(= y_3 (cons_1 z_1 x_5))
			(= z_1 (pair_1 y_4 x_6))
			(not x_6))
		(models_1 x_30 x_4 y_3))))
(assert (forall ((x_4 Nat_0) (y_3 list_1) (x_32 list_0))
	(=>	(and (= x_32 nil_0)
			(= y_3 nil_1))
		(models_1 x_32 x_4 y_3))))
(declare-fun models_2 (list_0 Nat_0 list_1) Bool)
(assert (forall ((x_7 Nat_0) (y_5 list_1) (z_2 pair_0) (x_8 list_1) (y_6 Nat_0) (x_9 Bool) (x_33 list_0) (x_34 list_0))
	(=>	(and (= x_33 (cons_0 (= x_7 y_6) x_34))
			(models_2 x_34 x_7 x_8)
			(= y_5 (cons_1 z_2 x_8))
			(= z_2 (pair_1 y_6 x_9))
			x_9)
		(models_2 x_33 x_7 y_5))))
(assert (forall ((x_7 Nat_0) (y_5 list_1) (z_2 pair_0) (x_8 list_1) (y_6 Nat_0) (x_9 Bool) (x_35 list_0) (x_36 list_0))
	(=>	(and (= x_35 x_36)
			(models_2 x_36 x_7 x_8)
			(= y_5 (cons_1 z_2 x_8))
			(= z_2 (pair_1 y_6 x_9))
			(not x_9))
		(models_2 x_35 x_7 y_5))))
(assert (forall ((x_7 Nat_0) (y_5 list_1) (x_37 list_0))
	(=>	(and (= x_37 nil_0)
			(= y_5 nil_1))
		(models_2 x_37 x_7 y_5))))
(declare-fun bar_0 (Bool list_1 Form_0) Bool)
(assert (forall ((x_10 list_1) (y_7 Form_0) (z_3 Nat_0) (x_38 Bool) (x_39 list_0) (x_40 Bool))
	(=>	(and (= x_38 x_40)
			(models_2 x_39 z_3 x_10)
			(or_0 x_40 x_39)
			(= y_7 (Var_0 z_3)))
		(bar_0 x_38 x_10 y_7))))
(assert (forall ((x_10 list_1) (y_7 Form_0) (r_0 Form_0) (x_41 Bool) (x_42 Bool))
	(=>	(and (= x_41 (not x_42))
			(bar_0 x_42 x_10 r_0)
			(= y_7 (Not_0 r_0)))
		(bar_0 x_41 x_10 y_7))))
(assert (forall ((x_10 list_1) (y_7 Form_0) (p_0 Form_0) (q_0 Form_0) (x_43 Bool) (x_44 Bool) (x_45 Bool))
	(=>	(and (= x_43 (and x_44 x_45))
			(bar_0 x_44 x_10 p_0)
			(bar_0 x_45 x_10 q_0)
			(= y_7 (x_0 p_0 q_0)))
		(bar_0 x_43 x_10 y_7))))
(declare-fun formula_0 (Bool Form_0 list_2) Bool)
(assert (forall ((p_1 Form_0) (x_11 list_2) (y_8 list_1) (xs_2 list_2) (x_46 Bool) (x_47 Bool) (x_48 Bool))
	(=>	(and (= x_46 (and x_47 x_48))
			(bar_0 x_47 y_8 p_1)
			(formula_0 x_48 p_1 xs_2)
			(= x_11 (cons_2 y_8 xs_2)))
		(formula_0 x_46 p_1 x_11))))
(assert (forall ((p_1 Form_0) (x_11 list_2) (x_49 Bool))
	(=>	(and (= x_49 true)
			(= x_11 nil_2))
		(formula_0 x_49 p_1 x_11))))
(declare-fun x_12 (list_2 list_2 list_2) Bool)
(assert (forall ((x_13 list_2) (y_9 list_2) (z_4 list_1) (xs_3 list_2) (x_50 list_2) (x_51 list_2))
	(=>	(and (= x_50 (cons_2 z_4 x_51))
			(x_12 x_51 xs_3 y_9)
			(= x_13 (cons_2 z_4 xs_3)))
		(x_12 x_50 x_13 y_9))))
(assert (forall ((x_13 list_2) (y_9 list_2) (x_52 list_2))
	(=>	(and (= x_52 y_9)
			(= x_13 nil_2))
		(x_12 x_52 x_13 y_9))))
(declare-fun models_3 (list_2 Form_0 list_1) Bool)
(declare-fun models_4 (list_2 Form_0 list_2) Bool)
(declare-fun models_5 (list_2 list_2 Form_0 list_2) Bool)
(assert (forall ((x_14 Form_0) (y_10 list_1) (x_15 Nat_0) (x_55 list_2) (x_56 list_1) (x_53 list_0) (x_54 Bool))
	(=>	(and (= x_55 (cons_2 (cons_1 (pair_1 x_15 true) x_56) nil_2))
			(models_0 x_56 x_15 y_10)
			(= x_14 (Var_0 x_15))
			(= x_54 false)
			(models_1 x_53 x_15 y_10)
			(or_0 x_54 x_53))
		(models_3 x_55 x_14 y_10))))
(assert (forall ((x_14 Form_0) (y_10 list_1) (x_15 Nat_0) (x_59 list_2) (x_57 list_0) (x_58 Bool))
	(=>	(and (= x_59 nil_2)
			(= x_14 (Var_0 x_15))
			(= x_58 true)
			(models_1 x_57 x_15 y_10)
			(or_0 x_58 x_57))
		(models_3 x_59 x_14 y_10))))
(assert (forall ((x_14 Form_0) (y_10 list_1) (z_5 Form_0) (x_16 Nat_0) (x_62 list_2) (x_63 list_1) (x_60 list_0) (x_61 Bool))
	(=>	(and (= x_62 (cons_2 (cons_1 (pair_1 x_16 false) x_63) nil_2))
			(models_0 x_63 x_16 y_10)
			(= x_14 (Not_0 z_5))
			(= z_5 (Var_0 x_16))
			(= x_61 false)
			(models_2 x_60 x_16 y_10)
			(or_0 x_61 x_60))
		(models_3 x_62 x_14 y_10))))
(assert (forall ((x_14 Form_0) (y_10 list_1) (z_5 Form_0) (x_16 Nat_0) (x_66 list_2) (x_64 list_0) (x_65 Bool))
	(=>	(and (= x_66 nil_2)
			(= x_14 (Not_0 z_5))
			(= z_5 (Var_0 x_16))
			(= x_65 true)
			(models_2 x_64 x_16 y_10)
			(or_0 x_65 x_64))
		(models_3 x_66 x_14 y_10))))
(assert (forall ((x_14 Form_0) (y_10 list_1) (z_5 Form_0) (p_2 Form_0) (x_67 list_2) (x_68 list_2))
	(=>	(and (= x_67 x_68)
			(models_3 x_68 p_2 y_10)
			(= x_14 (Not_0 z_5))
			(= z_5 (Not_0 p_2)))
		(models_3 x_67 x_14 y_10))))
(assert (forall ((x_14 Form_0) (y_10 list_1) (z_5 Form_0) (r_1 Form_0) (q_1 Form_0) (x_69 list_2) (x_70 list_2) (x_71 list_2) (x_72 list_2))
	(=>	(and (= x_69 x_72)
			(models_3 x_70 (Not_0 r_1) y_10)
			(models_3 x_71 (x_0 r_1 (Not_0 q_1)) y_10)
			(x_12 x_72 x_70 x_71)
			(= x_14 (Not_0 z_5))
			(= z_5 (x_0 r_1 q_1)))
		(models_3 x_69 x_14 y_10))))
(assert (forall ((x_14 Form_0) (y_10 list_1) (p_3 Form_0) (q_2 Form_0) (x_73 list_2) (x_74 list_2) (x_75 list_2))
	(=>	(and (= x_73 x_75)
			(models_3 x_74 p_3 y_10)
			(models_4 x_75 q_2 x_74)
			(= x_14 (x_0 p_3 q_2)))
		(models_3 x_73 x_14 y_10))))
(assert (forall ((q_3 Form_0) (x_17 list_2) (y_11 list_1) (z_6 list_2) (x_76 list_2) (x_77 list_2) (x_78 list_2))
	(=>	(and (= x_76 x_78)
			(models_3 x_77 q_3 y_11)
			(models_5 x_78 z_6 q_3 x_77)
			(= x_17 (cons_2 y_11 z_6)))
		(models_4 x_76 q_3 x_17))))
(assert (forall ((q_3 Form_0) (x_17 list_2) (x_79 list_2))
	(=>	(and (= x_79 nil_2)
			(= x_17 nil_2))
		(models_4 x_79 q_3 x_17))))
(assert (forall ((x_18 list_2) (q_4 Form_0) (y_12 list_2) (z_7 list_1) (x_19 list_2) (x_80 list_2) (x_81 list_2))
	(=>	(and (= x_80 (cons_2 z_7 x_81))
			(models_5 x_81 x_18 q_4 x_19)
			(= y_12 (cons_2 z_7 x_19)))
		(models_5 x_80 x_18 q_4 y_12))))
(assert (forall ((x_18 list_2) (q_4 Form_0) (y_12 list_2) (x_82 list_2) (x_83 list_2))
	(=>	(and (= x_82 x_83)
			(models_4 x_83 q_4 x_18)
			(= y_12 nil_2))
		(models_5 x_82 x_18 q_4 y_12))))
(assert (forall ((p_4 Form_0) (x_84 list_2) (x_85 Bool))
	(=>	(and (= x_85 false)
			(models_3 x_84 p_4 nil_1)
			(formula_0 x_85 p_4 x_84))
		false)))
(check-sat)
